47
0 0 1 1 2 3 4 2 5 3 6 4 7 8 5 9 10 11 12 9 13 1 14 6 5 15 16 7 12 17 18 8 11 19 14 20 13 21 2 15 3 22 16 21 18 23 24 25 26 19 22 24 27 28 29 30 20 26 31 28 32 33 34 35 33 32 15 14 10 36 37 29 17 38 39 27 40 38 41 42 34 30 35 42 25 25 43 44 27 23 39 40 43 31 44 36 38 45 0 46 